4	143	143	0	1	1	5	17	38
5	144	144	1	6	7	6	29	47
6	236	184	0	4	5	5	33	51
7	279	240	0	4	3	10	41	61
8	267	244	0	13	4	11	44	77
9	261	225	1	149	6	10	365	395
10	385	227	0	13	6	9	35	62
11	438	308	4	484	17	11	1325	1366
12	377	307	0	17	5	13	56	86
13	541	331	0	57	9	12	144	169
14	551	373	1	102	11	10	240	266
15	675	381	1	252	18	15	551	581
16	560	361	1	75	21	9	175	194
17	656	391	1	545	18	19	1061	1100
18	634	426	0	762	21	16	1736	1771
19	875	476	1	476	16	19	952	986
